424 5
10 10 10 10 10 

0 0 0 0 0 0 5 2 14 26 38 50 
0 0 0 0 0 0 7 3 5 6 7 10 11 12 
7 0 1 0 0 0 2 9 4 
6 0 6 0 0 0 1 8 
1 0 3 0 0 0 1 9 
3 0 4 0 0 0 1 8 
9 0 6 0 0 0 1 8 
2 0 3 0 0 0 1 13 
4 0 5 0 0 0 1 13 
6 0 8 0 0 0 1 13 
4 0 9 0 0 0 1 13 
4 0 5 0 0 0 1 13 
0 0 0 0 0 0 1 62 
0 0 0 0 0 0 3 15 16 20 
5 0 0 0 0 1 3 24 18 17 
6 0 0 0 0 5 2 19 17 
4 0 0 0 0 4 3 23 22 21 
6 0 0 0 0 4 3 23 22 21 
9 0 0 0 0 6 2 24 22 
7 0 0 0 0 5 1 21 
1 0 0 0 0 4 1 25 
7 0 0 0 0 10 1 25 
3 0 0 0 0 6 1 25 
3 0 0 0 0 5 1 25 
0 0 0 0 0 0 1 62 
0 0 0 0 0 0 6 27 29 33 34 35 36 
6 0 1 0 0 0 3 32 30 28 
10 0 3 0 0 0 1 31 
9 0 6 0 0 0 1 30 
8 0 7 0 0 0 1 37 
10 0 5 0 0 0 1 37 
5 0 4 0 0 0 1 37 
2 0 10 0 0 0 1 37 
9 0 3 0 0 0 1 37 
3 0 5 0 0 0 1 37 
10 0 6 0 0 0 1 37 
0 0 0 0 0 0 1 62 
0 0 0 0 0 0 2 39 40 
10 0 0 1 0 0 6 46 45 44 43 42 41 
2 0 0 3 0 0 6 46 45 44 43 42 41 
10 0 0 3 0 0 2 48 47 
10 0 0 7 0 0 2 48 47 
2 0 0 8 0 0 2 48 47 
2 0 0 9 0 0 2 48 47 
5 0 0 6 0 0 2 48 47 
4 0 0 4 0 0 2 48 47 
7 0 0 5 0 0 1 49 
7 0 0 4 0 0 1 49 
0 0 0 0 0 0 1 62 
0 0 0 0 0 0 5 51 52 53 55 60 
2 0 0 0 1 0 3 59 57 56 
6 0 0 0 8 0 2 57 56 
7 0 0 0 7 0 1 54 
2 0 0 0 4 0 1 58 
2 0 0 0 3 0 1 56 
1 0 0 0 5 0 1 61 
6 0 0 0 3 0 1 61 
7 0 0 0 7 0 1 61 
7 0 0 0 7 0 1 61 
2 0 0 0 5 0 1 61 
0 0 0 0 0 0 1 62 
0 0 0 0 0 0 5 63 75 87 99 111 
0 0 0 0 0 0 5 64 65 66 70 73 
3 0 1 0 0 0 3 72 69 68 
7 0 5 0 0 0 2 72 67 
6 0 5 0 0 0 2 72 71 
6 0 6 0 0 0 1 71 
4 0 6 0 0 0 1 71 
9 0 8 0 0 0 1 71 
10 0 3 0 0 0 1 72 
10 0 3 0 0 0 1 74 
2 0 8 0 0 0 1 74 
7 0 5 0 0 0 1 74 
0 0 0 0 0 0 1 123 
0 0 0 0 0 0 7 76 78 79 80 83 84 85 
2 0 0 0 1 0 2 81 77 
1 0 0 0 5 0 1 82 
3 0 0 0 6 0 1 82 
3 0 0 0 8 0 1 81 
9 0 0 0 5 0 1 81 
1 0 0 0 5 0 1 86 
6 0 0 0 6 0 1 86 
1 0 0 0 5 0 1 86 
8 0 0 0 6 0 1 86 
3 0 0 0 3 0 1 86 
0 0 0 0 0 0 1 123 
0 0 0 0 0 0 2 88 89 
1 0 0 1 0 0 3 97 96 91 
2 0 0 9 0 0 2 94 90 
3 0 0 3 0 0 3 95 93 92 
2 0 0 9 0 0 3 94 93 92 
7 0 0 5 0 0 1 98 
1 0 0 3 0 0 1 98 
8 0 0 6 0 0 1 98 
2 0 0 3 0 0 1 98 
2 0 0 6 0 0 1 98 
3 0 0 5 0 0 1 98 
0 0 0 0 0 0 1 123 
0 0 0 0 0 0 3 100 101 102 
10 0 0 1 0 0 5 107 106 105 104 103 
4 0 0 4 0 0 4 106 105 104 103 
4 0 0 8 0 0 3 107 105 103 
5 0 0 6 0 0 2 109 108 
1 0 0 7 0 0 2 109 108 
1 0 0 4 0 0 1 108 
7 0 0 6 0 0 1 109 
8 0 0 5 0 0 1 108 
7 0 0 5 0 0 1 110 
3 0 0 4 0 0 1 110 
0 0 0 0 0 0 1 123 
0 0 0 0 0 0 3 112 113 114 
8 0 0 0 1 0 6 121 120 119 118 117 115 
10 0 0 0 4 0 5 121 120 118 117 115 
9 0 0 0 5 0 4 119 118 117 116 
6 0 0 0 7 0 1 116 
2 0 0 0 8 0 1 122 
6 0 0 0 3 0 1 122 
9 0 0 0 6 0 1 122 
10 0 0 0 5 0 1 122 
1 0 0 0 6 0 1 122 
5 0 0 0 5 0 1 122 
0 0 0 0 0 0 1 123 
0 0 0 0 0 0 5 124 156 168 200 232 
0 0 0 0 0 0 6 125 126 127 128 129 154 
4 0 1 1 0 1 5 136 133 132 131 130 
2 0 4 7 0 5 5 153 134 133 132 130 
8 0 4 6 0 5 4 140 133 131 130 
8 0 7 4 0 6 4 136 133 132 130 
1 0 9 2 0 2 2 152 131 
5 0 6 4 0 2 3 142 138 135 
5 0 4 6 0 4 3 151 139 134 
9 0 9 4 0 4 6 150 149 148 145 142 140 
7 0 3 6 0 3 2 142 137 
4 0 7 7 0 3 1 137 
10 0 6 3 0 2 1 137 
1 0 7 5 0 3 1 137 
9 0 7 6 0 6 5 150 149 148 145 141 
7 0 4 5 0 5 5 151 149 148 147 141 
9 0 3 2 0 9 5 150 149 148 147 141 
6 0 8 6 0 2 2 151 141 
10 0 6 5 0 8 1 143 
8 0 7 9 0 6 2 151 147 
2 0 6 6 0 5 1 144 
4 0 4 6 0 7 1 146 
2 0 4 3 0 5 1 147 
7 0 3 3 0 5 1 155 
6 0 3 6 0 9 1 155 
5 0 7 9 0 6 1 155 
1 0 2 7 0 9 1 155 
10 0 4 4 0 3 1 155 
9 0 2 6 0 7 1 155 
1 0 1 5 0 4 1 155 
10 0 5 2 0 7 1 155 
10 0 7 5 0 7 1 155 
0 0 0 0 0 0 1 424 
0 0 0 0 0 0 2 157 158 
10 0 0 0 0 1 4 166 161 160 159 
4 0 0 0 0 4 3 163 161 159 
6 0 0 0 0 6 3 165 164 162 
7 0 0 0 0 5 2 163 162 
3 0 0 0 0 6 1 162 
9 0 0 0 0 4 1 167 
2 0 0 0 0 7 1 167 
2 0 0 0 0 2 1 167 
10 0 0 0 0 7 1 167 
8 0 0 0 0 8 1 167 
0 0 0 0 0 0 5 264 286 308 320 342 
0 0 0 0 0 0 6 169 170 171 172 173 178 
3 1 2 0 0 1 5 186 185 176 175 174 
8 5 2 0 0 7 5 185 183 182 176 175 
5 4 4 0 0 6 4 186 182 176 175 
8 5 1 0 0 4 4 187 186 175 174 
8 4 4 0 0 2 3 187 186 174 
1 4 7 0 0 6 4 188 183 182 181 
6 6 4 0 0 5 3 181 180 179 
10 6 5 0 0 6 1 177 
1 8 2 0 0 4 3 188 187 184 
8 5 4 0 0 4 2 188 181 
3 3 10 0 0 8 2 188 184 
6 4 7 0 0 4 2 188 184 
5 7 5 0 0 9 1 184 
10 5 6 0 0 3 1 184 
8 4 6 0 0 3 1 184 
4 3 6 0 0 5 5 198 197 194 190 189 
2 3 7 0 0 10 5 198 197 194 190 189 
9 8 5 0 0 10 2 194 188 
8 8 2 0 0 2 2 197 189 
8 6 4 0 0 2 4 198 197 196 193 
4 5 10 0 0 6 2 196 192 
8 7 5 0 0 5 1 191 
6 4 3 0 0 4 2 196 195 
2 4 9 0 0 3 1 193 
7 5 7 0 0 3 1 195 
4 6 6 0 0 6 1 196 
8 5 4 0 0 6 1 199 
4 4 2 0 0 6 1 199 
2 7 5 0 0 6 1 199 
9 4 6 0 0 4 1 199 
0 0 0 0 0 0 1 424 
0 0 0 0 0 0 6 201 202 203 204 209 230 
1 1 0 1 0 1 4 212 207 206 205 
3 7 0 4 0 4 6 226 225 218 212 211 208 
6 4 0 7 0 6 6 229 224 222 219 218 207 
9 3 0 7 0 5 5 228 225 218 211 208 
1 8 0 4 0 5 4 226 222 219 208 
10 4 0 2 0 6 3 223 213 210 
2 7 0 4 0 6 5 226 225 223 217 214 
4 8 0 3 0 4 2 223 210 
1 6 0 5 0 6 3 227 213 212 
7 4 0 6 0 5 3 224 217 214 
10 3 0 6 0 6 1 214 
7 7 0 4 0 5 2 222 216 
6 5 0 7 0 2 2 222 217 
2 9 0 4 0 8 1 215 
8 6 0 4 0 3 1 216 
5 8 0 8 0 5 1 220 
3 5 0 5 0 5 1 221 
3 5 0 5 0 2 1 220 
1 4 0 7 0 7 1 225 
4 8 0 3 0 8 1 231 
4 4 0 5 0 4 1 231 
5 3 0 10 0 5 1 231 
2 4 0 4 0 8 1 231 
4 7 0 4 0 4 1 231 
5 3 0 2 0 4 1 231 
2 3 0 8 0 2 1 231 
2 3 0 7 0 8 1 231 
9 7 0 2 0 7 1 231 
3 3 0 6 0 5 1 231 
6 1 0 6 0 4 1 231 
0 0 0 0 0 0 1 424 
0 0 0 0 0 0 6 233 234 235 236 239 262 
7 1 0 0 1 1 4 245 240 238 237 
1 2 0 0 8 3 6 260 255 251 250 244 241 
2 7 0 0 5 4 6 261 255 252 251 242 240 
7 3 0 0 3 6 5 251 250 245 244 241 
4 10 0 0 4 5 4 255 252 250 241 
6 6 0 0 7 5 3 256 243 242 
10 4 0 0 5 7 4 259 246 245 243 
6 6 0 0 5 5 4 256 250 249 246 
8 1 0 0 5 6 2 256 242 
3 1 0 0 6 5 3 258 249 246 
3 4 0 0 2 4 3 255 249 248 
1 9 0 0 5 8 1 246 
7 5 0 0 5 5 2 255 248 
3 10 0 0 5 2 1 247 
6 4 0 0 4 5 1 248 
3 9 0 0 9 4 1 253 
2 3 0 0 5 2 1 254 
5 5 0 0 3 7 1 257 
10 4 0 0 6 7 1 253 
2 4 0 0 3 6 1 257 
4 6 0 0 6 6 1 263 
3 3 0 0 4 5 1 263 
2 4 0 0 5 3 1 263 
9 7 0 0 8 5 1 263 
2 3 0 0 4 5 1 263 
5 8 0 0 3 8 1 263 
10 7 0 0 4 3 1 263 
3 4 0 0 8 5 1 263 
6 3 0 0 6 9 1 263 
5 7 0 0 6 4 1 263 
0 0 0 0 0 0 1 424 
0 0 0 0 0 0 5 265 266 267 268 270 
1 1 0 0 3 0 4 274 273 272 271 
3 2 0 0 2 0 3 275 271 269 
8 6 0 0 5 0 5 284 277 276 275 274 
4 5 0 0 6 0 2 277 269 
7 8 0 0 5 0 4 284 282 276 274 
2 7 0 0 4 0 4 284 278 277 276 
10 4 0 0 10 0 3 278 277 276 
2 5 0 0 4 0 3 278 277 276 
2 3 0 0 4 0 4 284 282 281 278 
6 5 0 0 8 0 3 281 279 278 
3 7 0 0 5 0 3 283 279 278 
5 7 0 0 10 0 3 283 281 280 
4 4 0 0 4 0 2 282 279 
3 4 0 0 3 0 1 280 
7 7 0 0 4 0 1 280 
9 3 0 0 5 0 1 285 
2 6 0 0 5 0 1 285 
2 4 0 0 4 0 1 285 
3 7 0 0 3 0 1 285 
7 5 0 0 6 0 1 285 
0 0 0 0 0 0 1 424 
0 0 0 0 0 0 4 287 288 289 290 
7 0 1 0 2 0 5 296 295 294 293 292 
8 0 4 0 2 0 4 296 295 294 291 
5 0 4 0 5 0 4 295 294 292 291 
6 0 7 0 6 0 3 293 292 291 
4 0 5 0 5 0 4 300 299 298 297 
5 0 6 0 8 0 4 300 299 298 297 
6 0 7 0 2 0 4 300 299 298 297 
7 0 3 0 7 0 3 300 299 297 
6 0 8 0 1 0 3 303 300 299 
5 0 4 0 8 0 2 299 297 
10 0 6 0 1 0 5 306 305 303 302 301 
10 0 5 0 10 0 4 305 303 302 301 
4 0 4 0 5 0 3 306 305 302 
6 0 7 0 7 0 3 306 305 301 
2 0 7 0 5 0 1 304 
9 0 6 0 6 0 1 304 
7 0 4 0 4 0 1 304 
6 0 4 0 7 0 1 307 
10 0 3 0 3 0 1 307 
4 0 5 0 6 0 1 307 
0 0 0 0 0 0 1 424 
0 0 0 0 0 0 6 309 310 311 312 314 318 
10 0 2 0 0 0 3 317 316 315 
10 0 1 0 0 0 2 316 313 
5 0 6 0 0 0 2 316 315 
3 0 10 0 0 0 1 313 
5 0 6 0 0 0 1 315 
2 0 5 0 0 0 1 315 
5 0 4 0 0 0 1 319 
1 0 7 0 0 0 1 319 
9 0 3 0 0 0 1 319 
3 0 6 0 0 0 1 319 
0 0 0 0 0 0 5 364 376 388 400 412 
0 0 0 0 0 0 14 321 322 324 326 331 332 333 334 335 336 337 338 339 340 
7 1 0 0 0 2 2 330 325 
6 3 0 0 0 7 1 323 
3 4 0 0 0 3 1 325 
2 6 0 0 0 6 2 329 328 
9 4 0 0 0 3 1 327 
9 7 0 0 0 2 1 327 
2 4 0 0 0 9 1 328 
2 5 0 0 0 3 1 341 
4 5 0 0 0 10 1 341 
4 5 0 0 0 2 1 341 
5 2 0 0 0 9 1 341 
8 5 0 0 0 4 1 341 
2 6 0 0 0 9 1 341 
2 5 0 0 0 6 1 341 
2 5 0 0 0 2 1 341 
4 7 0 0 0 5 1 341 
1 4 0 0 0 6 1 341 
9 6 0 0 0 4 1 341 
1 6 0 0 0 4 1 341 
10 10 0 0 0 4 1 341 
0 0 0 0 0 0 1 424 
0 0 0 0 0 0 6 343 344 345 346 347 348 
3 0 1 0 1 0 5 362 360 353 350 349 
4 0 5 0 2 0 4 361 360 355 350 
6 0 8 0 7 0 6 361 360 359 358 355 352 
7 0 5 0 4 0 3 361 360 349 
2 0 4 0 8 0 7 361 360 359 358 357 355 354 
9 0 6 0 7 0 3 360 358 351 
7 0 6 0 2 0 5 359 358 357 355 354 
5 0 7 0 3 0 3 359 358 352 
2 0 4 0 7 0 3 357 355 354 
6 0 4 0 4 0 2 357 354 
7 0 8 0 9 0 2 357 354 
3 0 9 0 7 0 1 356 
9 0 5 0 4 0 1 356 
9 0 2 0 5 0 1 363 
2 0 2 0 5 0 1 363 
2 0 5 0 4 0 1 363 
10 0 7 0 7 0 1 363 
2 0 5 0 5 0 1 363 
10 0 3 0 4 0 1 363 
5 0 4 0 5 0 1 363 
0 0 0 0 0 0 1 424 
0 0 0 0 0 0 5 365 366 368 369 370 
7 1 0 0 0 0 2 374 367 
10 5 0 0 0 0 4 374 373 372 371 
9 3 0 0 0 0 3 373 372 371 
1 6 0 0 0 0 2 374 372 
9 6 0 0 0 0 2 373 371 
10 7 0 0 0 0 2 372 371 
3 4 0 0 0 0 1 375 
1 8 0 0 0 0 1 375 
9 3 0 0 0 0 1 375 
7 7 0 0 0 0 1 375 
0 0 0 0 0 0 1 424 
0 0 0 0 0 0 5 377 378 379 380 386 
5 1 0 0 0 0 2 384 382 
3 5 0 0 0 0 2 384 381 
5 6 0 0 0 0 2 385 384 
10 4 0 0 0 0 1 381 
4 4 0 0 0 0 1 383 
3 7 0 0 0 0 1 383 
3 4 0 0 0 0 1 387 
9 5 0 0 0 0 1 387 
3 8 0 0 0 0 1 387 
3 6 0 0 0 0 1 387 
0 0 0 0 0 0 1 424 
0 0 0 0 0 0 5 389 390 391 393 394 
9 1 0 0 0 0 3 398 396 392 
6 7 0 0 0 0 2 397 392 
8 6 0 0 0 0 2 397 395 
4 4 0 0 0 0 1 395 
9 4 0 0 0 0 1 396 
4 5 0 0 0 0 1 395 
2 5 0 0 0 0 1 399 
4 4 0 0 0 0 1 399 
6 6 0 0 0 0 1 399 
9 8 0 0 0 0 1 399 
0 0 0 0 0 0 1 424 
0 0 0 0 0 0 7 401 402 403 405 408 409 410 
9 0 1 0 0 0 1 404 
2 0 6 0 0 0 1 404 
10 0 7 0 0 0 1 404 
7 0 1 0 0 0 2 407 406 
5 0 7 0 0 0 1 406 
1 0 2 0 0 0 1 411 
4 0 8 0 0 0 1 411 
1 0 7 0 0 0 1 411 
8 0 6 0 0 0 1 411 
10 0 5 0 0 0 1 411 
0 0 0 0 0 0 1 424 
0 0 0 0 0 0 4 413 414 416 422 
2 0 0 0 1 0 2 421 415 
6 0 0 0 7 0 3 419 418 417 
10 0 0 0 2 0 2 420 417 
8 0 0 0 5 0 2 419 418 
8 0 0 0 9 0 1 423 
8 0 0 0 4 0 1 423 
8 0 0 0 7 0 1 423 
1 0 0 0 6 0 1 423 
5 0 0 0 4 0 1 423 
10 0 0 0 5 0 1 423 
0 0 0 0 0 0 1 424 
0 0 0 0 0 0 0 
